NAME          
ROWS
 N  OBJ
 L  c2
 L  c3
 L  c4
 L  c5
 L  c6
 L  c7
 L  c8
 L  c9
 L  c10
 L  c11
 G  c1
COLUMNS
    ss[1]     c1        1
    ss[1]     OBJ       1000
    s[1]      c2        1
    s[1]      OBJ       -1000
    s[2]      c3        1
    s[2]      OBJ       -1000
    s[3]      c4        1
    s[3]      OBJ       -1000
    s[4]      c5        1
    s[4]      OBJ       -1000
    s[5]      c6        1
    s[5]      OBJ       -1000
    s[6]      c7        1
    s[6]      OBJ       -1000
    s[7]      c8        1
    s[7]      OBJ       -1000
    s[8]      c9        1
    s[8]      OBJ       -1000
    s[9]      c10       1
    s[9]      OBJ       -1000
    s[10]     c11       1
    s[10]     OBJ       -1000
    MARKER    'MARKER'                 'INTORG'
    x[1]      c2        66
    x[1]      c3        963
    x[1]      c4        627
    x[1]      c5        219
    x[1]      c6        698
    x[1]      c7        560
    x[1]      c8        130
    x[1]      c9        379
    x[1]      c10       376
    x[1]      c11       233
    x[1]      c1        556
    x[1]      OBJ       -226
    x[2]      c2        681
    x[2]      c3        22
    x[2]      c4        731
    x[2]      c5        548
    x[2]      c6        637
    x[2]      c7        72
    x[2]      c8        144
    x[2]      c9        161
    x[2]      c10       148
    x[2]      c11       868
    x[2]      c1        736
    x[2]      OBJ       -158
    x[3]      c2        626
    x[3]      c3        436
    x[3]      c4        787
    x[3]      c5        488
    x[3]      c6        973
    x[3]      c7        254
    x[3]      c8        980
    x[3]      c9        372
    x[3]      c10       715
    x[3]      c11       407
    x[3]      c1        301
    x[3]      OBJ       -569
    x[4]      c2        661
    x[4]      c3        657
    x[4]      c4        5
    x[4]      c5        848
    x[4]      c6        968
    x[4]      c7        417
    x[4]      c8        908
    x[4]      c9        368
    x[4]      c10       42
    x[4]      c11       405
    x[4]      c1        111
    x[4]      OBJ       -617
    x[5]      c2        350
    x[5]      c3        810
    x[5]      c4        100
    x[5]      c5        513
    x[5]      c6        582
    x[5]      c7        687
    x[5]      c8        78
    x[5]      c9        164
    x[5]      c10       752
    x[5]      c11       626
    x[5]      c1        704
    x[5]      OBJ       -1
    x[6]      c2        676
    x[6]      c3        802
    x[6]      c4        244
    x[6]      c5        443
    x[6]      c6        58
    x[6]      c7        360
    x[6]      c8        15
    x[6]      c9        727
    x[6]      c10       688
    x[6]      c11       627
    x[6]      c1        408
    x[6]      OBJ       -487
    x[7]      c2        940
    x[7]      c3        531
    x[7]      c4        650
    x[7]      c5        376
    x[7]      c6        853
    x[7]      c7        884
    x[7]      c8        653
    x[7]      c9        980
    x[7]      c10       549
    x[7]      c11       26
    x[7]      c1        163
    x[7]      OBJ       -487
    x[8]      c2        181
    x[8]      c3        224
    x[8]      c4        674
    x[8]      c5        662
    x[8]      c6        630
    x[8]      c7        26
    x[8]      c8        662
    x[8]      c9        510
    x[8]      c10       641
    x[8]      c11       415
    x[8]      c1        315
    x[8]      OBJ       -384
    x[9]      c2        744
    x[9]      c3        982
    x[9]      c4        564
    x[9]      c5        964
    x[9]      c6        808
    x[9]      c7        175
    x[9]      c8        281
    x[9]      c9        915
    x[9]      c10       563
    x[9]      c11       570
    x[9]      c1        670
    x[9]      OBJ       -351
    x[10]     c2        706
    x[10]     c3        379
    x[10]     c4        841
    x[10]     c5        721
    x[10]     c6        877
    x[10]     c7        136
    x[10]     c8        292
    x[10]     c9        973
    x[10]     c10       866
    x[10]     c11       16
    x[10]     c1        457
    x[10]     OBJ       -515
    x[11]     c2        338
    x[11]     c3        542
    x[11]     c4        935
    x[11]     c5        804
    x[11]     c6        94
    x[11]     c7        307
    x[11]     c8        365
    x[11]     c9        165
    x[11]     c10       854
    x[11]     c11       474
    x[11]     c1        357
    x[11]     OBJ       -384
    x[12]     c2        798
    x[12]     c3        141
    x[12]     c4        164
    x[12]     c5        850
    x[12]     c6        278
    x[12]     c7        177
    x[12]     c8        182
    x[12]     c9        265
    x[12]     c10       929
    x[12]     c11       437
    x[12]     c1        916
    x[12]     OBJ       327
    x[13]     c2        738
    x[13]     c3        828
    x[13]     c4        889
    x[13]     c5        986
    x[13]     c6        973
    x[13]     c7        174
    x[13]     c8        418
    x[13]     c9        770
    x[13]     c10       912
    x[13]     c11       916
    x[13]     c1        614
    x[13]     OBJ       -485
    x[14]     c2        778
    x[14]     c3        165
    x[14]     c4        207
    x[14]     c5        478
    x[14]     c6        406
    x[14]     c7        45
    x[14]     c8        844
    x[14]     c9        131
    x[14]     c10       147
    x[14]     c11       816
    x[14]     c1        60
    x[14]     OBJ       -794
    x[15]     c2        226
    x[15]     c3        42
    x[15]     c4        11
    x[15]     c5        746
    x[15]     c6        655
    x[15]     c7        94
    x[15]     c8        265
    x[15]     c9        775
    x[15]     c10       858
    x[15]     c11       27
    x[15]     c1        373
    x[15]     OBJ       -438
    x[16]     c2        817
    x[16]     c3        107
    x[16]     c4        222
    x[16]     c5        929
    x[16]     c6        674
    x[16]     c7        226
    x[16]     c8        996
    x[16]     c9        140
    x[16]     c10       833
    x[16]     c11       201
    x[16]     c1        182
    x[16]     OBJ       -657
    x[17]     c2        969
    x[17]     c3        846
    x[17]     c4        336
    x[17]     c5        617
    x[17]     c6        52
    x[17]     c7        404
    x[17]     c8        288
    x[17]     c9        656
    x[17]     c10       585
    x[17]     c11       721
    x[17]     c1        129
    x[17]     OBJ       -511
    x[18]     c2        72
    x[18]     c3        899
    x[18]     c4        733
    x[18]     c5        336
    x[18]     c6        40
    x[18]     c7        358
    x[18]     c8        237
    x[18]     c9        773
    x[18]     c10       458
    x[18]     c11       291
    x[18]     c1        767
    x[18]     OBJ       -99
    x[19]     c2        121
    x[19]     c3        24
    x[19]     c4        9
    x[19]     c5        895
    x[19]     c6        351
    x[19]     c7        272
    x[19]     c8        103
    x[19]     c9        467
    x[19]     c10       732
    x[19]     c11       563
    x[19]     c1        896
    x[19]     OBJ       -54
    x[20]     c2        482
    x[20]     c3        330
    x[20]     c4        834
    x[20]     c5        424
    x[20]     c6        171
    x[20]     c7        531
    x[20]     c8        826
    x[20]     c9        253
    x[20]     c10       578
    x[20]     c11       151
    x[20]     c1        178
    x[20]     OBJ       -624
    x[21]     c2        395
    x[21]     c3        960
    x[21]     c4        18
    x[21]     c5        811
    x[21]     c6        714
    x[21]     c7        845
    x[21]     c8        217
    x[21]     c9        300
    x[21]     c10       886
    x[21]     c11       522
    x[21]     c1        975
    x[21]     OBJ       -127
    x[22]     c2        44
    x[22]     c3        456
    x[22]     c4        909
    x[22]     c5        350
    x[22]     c6        201
    x[22]     c7        783
    x[22]     c8        167
    x[22]     c9        970
    x[22]     c10       453
    x[22]     c11       210
    x[22]     c1        226
    x[22]     OBJ       -677
    x[23]     c2        277
    x[23]     c3        9
    x[23]     c4        341
    x[23]     c5        353
    x[23]     c6        491
    x[23]     c7        949
    x[23]     c8        406
    x[23]     c9        570
    x[23]     c10       385
    x[23]     c11       634
    x[23]     c1        404
    x[23]     OBJ       -248
    x[24]     c2        269
    x[24]     c3        210
    x[24]     c4        908
    x[24]     c5        904
    x[24]     c6        77
    x[24]     c7        354
    x[24]     c8        907
    x[24]     c9        155
    x[24]     c10       119
    x[24]     c11       934
    x[24]     c1        833
    x[24]     OBJ       -28
    x[25]     c2        651
    x[25]     c3        234
    x[25]     c4        267
    x[25]     c5        99
    x[25]     c6        624
    x[25]     c7        84
    x[25]     c8        186
    x[25]     c9        546
    x[25]     c10       52
    x[25]     c11       772
    x[25]     c1        575
    x[25]     OBJ       -155
    x[26]     c2        784
    x[26]     c3        207
    x[26]     c4        295
    x[26]     c5        230
    x[26]     c6        154
    x[26]     c7        769
    x[26]     c8        305
    x[26]     c9        54
    x[26]     c10       846
    x[26]     c11       277
    x[26]     c1        340
    x[26]     OBJ       -316
    x[27]     c2        444
    x[27]     c3        488
    x[27]     c4        579
    x[27]     c5        336
    x[27]     c6        617
    x[27]     c7        889
    x[27]     c8        84
    x[27]     c9        734
    x[27]     c10       197
    x[27]     c11       471
    x[27]     c1        321
    x[27]     OBJ       -556
    x[28]     c2        864
    x[28]     c3        581
    x[28]     c4        674
    x[28]     c5        283
    x[28]     c6        453
    x[28]     c7        211
    x[28]     c8        716
    x[28]     c9        814
    x[28]     c10       916
    x[28]     c11       783
    x[28]     c1        580
    x[28]     OBJ       -422
    x[29]     c2        87
    x[29]     c3        459
    x[29]     c4        80
    x[29]     c5        266
    x[29]     c6        281
    x[29]     c7        526
    x[29]     c8        574
    x[29]     c9        384
    x[29]     c10       183
    x[29]     c11       743
    x[29]     c1        425
    x[29]     OBJ       -247
    x[30]     c2        781
    x[30]     c3        51
    x[30]     c4        237
    x[30]     c5        287
    x[30]     c6        651
    x[30]     c7        503
    x[30]     c8        325
    x[30]     c9        784
    x[30]     c10       866
    x[30]     c11       615
    x[30]     c1        955
    x[30]     OBJ       -57
    x[31]     c2        944
    x[31]     c3        773
    x[31]     c4        873
    x[31]     c5        979
    x[31]     c6        710
    x[31]     c7        778
    x[31]     c8        11
    x[31]     c9        867
    x[31]     c10       967
    x[31]     c11       970
    x[31]     c1        739
    x[31]     OBJ       -179
    x[32]     c2        340
    x[32]     c3        552
    x[32]     c4        772
    x[32]     c5        443
    x[32]     c6        324
    x[32]     c7        870
    x[32]     c8        740
    x[32]     c9        216
    x[32]     c10       560
    x[32]     c11       755
    x[32]     c1        473
    x[32]     OBJ       -434
    x[33]     c2        348
    x[33]     c3        785
    x[33]     c4        331
    x[33]     c5        440
    x[33]     c6        54
    x[33]     c7        914
    x[33]     c8        472
    x[33]     c9        128
    x[33]     c10       669
    x[33]     c11       110
    x[33]     c1        946
    x[33]     OBJ       427
    x[34]     c2        42
    x[34]     c3        646
    x[34]     c4        900
    x[34]     c5        821
    x[34]     c6        620
    x[34]     c7        897
    x[34]     c8        758
    x[34]     c9        850
    x[34]     c10       352
    x[34]     c11       517
    x[34]     c1        666
    x[34]     OBJ       -470
    x[35]     c2        871
    x[35]     c3        813
    x[35]     c4        636
    x[35]     c5        380
    x[35]     c6        724
    x[35]     c7        30
    x[35]     c8        690
    x[35]     c9        459
    x[35]     c10       83
    x[35]     c11       670
    x[35]     c1        630
    x[35]     OBJ       -146
    x[36]     c2        738
    x[36]     c3        680
    x[36]     c4        2
    x[36]     c5        614
    x[36]     c6        584
    x[36]     c7        610
    x[36]     c8        667
    x[36]     c9        319
    x[36]     c10       539
    x[36]     c11       990
    x[36]     c1        462
    x[36]     OBJ       -447
    x[37]     c2        646
    x[37]     c3        835
    x[37]     c4        496
    x[37]     c5        731
    x[37]     c6        582
    x[37]     c7        722
    x[37]     c8        742
    x[37]     c9        444
    x[37]     c10       950
    x[37]     c11       676
    x[37]     c1        841
    x[37]     OBJ       -132
    x[38]     c2        585
    x[38]     c3        730
    x[38]     c4        223
    x[38]     c5        264
    x[38]     c6        572
    x[38]     c7        521
    x[38]     c8        695
    x[38]     c9        348
    x[38]     c10       246
    x[38]     c11       451
    x[38]     c1        2
    x[38]     OBJ       -550
    x[39]     c2        212
    x[39]     c3        450
    x[39]     c4        987
    x[39]     c5        187
    x[39]     c6        721
    x[39]     c7        444
    x[39]     c8        293
    x[39]     c9        204
    x[39]     c10       362
    x[39]     c11       379
    x[39]     c1        778
    x[39]     OBJ       290
    x[40]     c2        816
    x[40]     c3        636
    x[40]     c4        194
    x[40]     c5        723
    x[40]     c6        111
    x[40]     c7        692
    x[40]     c8        899
    x[40]     c9        328
    x[40]     c10       422
    x[40]     c11       693
    x[40]     c1        714
    x[40]     OBJ       -65
    x[41]     c2        17
    x[41]     c3        458
    x[41]     c4        901
    x[41]     c5        897
    x[41]     c6        998
    x[41]     c7        234
    x[41]     c8        955
    x[41]     c9        915
    x[41]     c10       85
    x[41]     c11       402
    x[41]     c1        855
    x[41]     OBJ       -214
    x[42]     c2        834
    x[42]     c3        665
    x[42]     c4        827
    x[42]     c5        316
    x[42]     c6        378
    x[42]     c7        567
    x[42]     c8        859
    x[42]     c9        840
    x[42]     c10       738
    x[42]     c11       590
    x[42]     c1        768
    x[42]     OBJ       -300
    x[43]     c2        783
    x[43]     c3        499
    x[43]     c4        230
    x[43]     c5        427
    x[43]     c6        936
    x[43]     c7        460
    x[43]     c8        461
    x[43]     c9        826
    x[43]     c10       644
    x[43]     c11       804
    x[43]     c1        141
    x[43]     OBJ       -715
    x[44]     c2        513
    x[44]     c3        919
    x[44]     c4        671
    x[44]     c5        140
    x[44]     c6        611
    x[44]     c7        349
    x[44]     c8        577
    x[44]     c9        826
    x[44]     c10       525
    x[44]     c11       848
    x[44]     c1        847
    x[44]     OBJ       -164
    x[45]     c2        406
    x[45]     c3        668
    x[45]     c4        252
    x[45]     c5        854
    x[45]     c6        652
    x[45]     c7        547
    x[45]     c8        747
    x[45]     c9        589
    x[45]     c10       104
    x[45]     c11       635
    x[45]     c1        325
    x[45]     OBJ       -630
    x[46]     c2        659
    x[46]     c3        485
    x[46]     c4        731
    x[46]     c5        415
    x[46]     c6        268
    x[46]     c7        925
    x[46]     c8        644
    x[46]     c9        963
    x[46]     c10       611
    x[46]     c11       927
    x[46]     c1        765
    x[46]     OBJ       -208
    x[47]     c2        69
    x[47]     c3        181
    x[47]     c4        604
    x[47]     c5        703
    x[47]     c6        64
    x[47]     c7        942
    x[47]     c8        853
    x[47]     c9        275
    x[47]     c10       889
    x[47]     c11       741
    x[47]     c1        10
    x[47]     OBJ       -995
    x[48]     c2        318
    x[48]     c3        474
    x[48]     c4        104
    x[48]     c5        801
    x[48]     c6        460
    x[48]     c7        334
    x[48]     c8        186
    x[48]     c9        800
    x[48]     c10       558
    x[48]     c11       240
    x[48]     c1        162
    x[48]     OBJ       -397
    x[49]     c2        287
    x[49]     c3        879
    x[49]     c4        64
    x[49]     c5        347
    x[49]     c6        251
    x[49]     c7        262
    x[49]     c8        588
    x[49]     c9        751
    x[49]     c10       695
    x[49]     c11       860
    x[49]     c1        208
    x[49]     OBJ       -546
    x[50]     c2        198
    x[50]     c3        119
    x[50]     c4        505
    x[50]     c5        532
    x[50]     c6        906
    x[50]     c7        634
    x[50]     c8        548
    x[50]     c9        424
    x[50]     c10       414
    x[50]     c11       948
    x[50]     c1        981
    x[50]     OBJ       373
    x[51]     c2        328
    x[51]     c3        821
    x[51]     c4        79
    x[51]     c5        322
    x[51]     c6        767
    x[51]     c7        419
    x[51]     c8        521
    x[51]     c9        743
    x[51]     c10       26
    x[51]     c11       82
    x[51]     c1        638
    x[51]     OBJ       -63
    x[52]     c2        774
    x[52]     c3        851
    x[52]     c4        765
    x[52]     c5        232
    x[52]     c6        776
    x[52]     c7        461
    x[52]     c8        173
    x[52]     c9        380
    x[52]     c10       86
    x[52]     c11       527
    x[52]     c1        184
    x[52]     OBJ       -544
    x[53]     c2        81
    x[53]     c3        788
    x[53]     c4        744
    x[53]     c5        324
    x[53]     c6        45
    x[53]     c7        169
    x[53]     c8        504
    x[53]     c9        744
    x[53]     c10       206
    x[53]     c11       260
    x[53]     c1        124
    x[53]     OBJ       -339
    x[54]     c2        185
    x[54]     c3        72
    x[54]     c4        496
    x[54]     c5        178
    x[54]     c6        953
    x[54]     c7        398
    x[54]     c8        989
    x[54]     c9        716
    x[54]     c10       575
    x[54]     c11       526
    x[54]     c1        910
    x[54]     OBJ       -166
    x[55]     c2        828
    x[55]     c3        130
    x[55]     c4        632
    x[55]     c5        88
    x[55]     c6        612
    x[55]     c7        125
    x[55]     c8        255
    x[55]     c9        484
    x[55]     c10       747
    x[55]     c11       479
    x[55]     c1        332
    x[55]     OBJ       -164
    x[56]     c2        742
    x[56]     c3        64
    x[56]     c4        410
    x[56]     c5        439
    x[56]     c6        587
    x[56]     c7        893
    x[56]     c8        789
    x[56]     c9        284
    x[56]     c10       87
    x[56]     c11       282
    x[56]     c1        634
    x[56]     OBJ       -8
    x[57]     c2        180
    x[57]     c3        107
    x[57]     c4        942
    x[57]     c5        824
    x[57]     c6        109
    x[57]     c7        291
    x[57]     c8        429
    x[57]     c9        696
    x[57]     c10       970
    x[57]     c11       559
    x[57]     c1        555
    x[57]     OBJ       -178
    x[58]     c2        556
    x[58]     c3        1
    x[58]     c4        205
    x[58]     c5        147
    x[58]     c6        969
    x[58]     c7        666
    x[58]     c8        625
    x[58]     c9        873
    x[58]     c10       358
    x[58]     c11       882
    x[58]     c1        55
    x[58]     OBJ       -744
    x[59]     c2        182
    x[59]     c3        740
    x[59]     c4        786
    x[59]     c5        633
    x[59]     c6        863
    x[59]     c7        655
    x[59]     c8        826
    x[59]     c9        771
    x[59]     c10       581
    x[59]     c11       724
    x[59]     c1        396
    x[59]     OBJ       -740
    x[60]     c2        921
    x[60]     c3        946
    x[60]     c4        682
    x[60]     c5        477
    x[60]     c6        799
    x[60]     c7        462
    x[60]     c8        731
    x[60]     c9        310
    x[60]     c10       115
    x[60]     c11       256
    x[60]     c1        23
    x[60]     OBJ       -773
    x[61]     c2        468
    x[61]     c3        969
    x[61]     c4        863
    x[61]     c5        407
    x[61]     c6        880
    x[61]     c7        927
    x[61]     c8        177
    x[61]     c9        979
    x[61]     c10       709
    x[61]     c11       281
    x[61]     c1        171
    x[61]     OBJ       -813
    x[62]     c2        213
    x[62]     c3        162
    x[62]     c4        463
    x[62]     c5        501
    x[62]     c6        750
    x[62]     c7        484
    x[62]     c8        224
    x[62]     c9        43
    x[62]     c10       477
    x[62]     c11       616
    x[62]     c1        310
    x[62]     OBJ       -500
    x[63]     c2        37
    x[63]     c3        236
    x[63]     c4        96
    x[63]     c5        703
    x[63]     c6        825
    x[63]     c7        492
    x[63]     c8        338
    x[63]     c9        404
    x[63]     c10       228
    x[63]     c11       309
    x[63]     c1        181
    x[63]     OBJ       -359
    x[64]     c2        302
    x[64]     c3        457
    x[64]     c4        554
    x[64]     c5        627
    x[64]     c6        58
    x[64]     c7        450
    x[64]     c8        429
    x[64]     c9        403
    x[64]     c10       127
    x[64]     c11       943
    x[64]     c1        378
    x[64]     OBJ       -194
    x[65]     c2        492
    x[65]     c3        729
    x[65]     c4        216
    x[65]     c5        646
    x[65]     c6        566
    x[65]     c7        803
    x[65]     c8        135
    x[65]     c9        185
    x[65]     c10       161
    x[65]     c11       741
    x[65]     c1        600
    x[65]     OBJ       -276
    x[66]     c2        315
    x[66]     c3        781
    x[66]     c4        554
    x[66]     c5        939
    x[66]     c6        191
    x[66]     c7        253
    x[66]     c8        621
    x[66]     c9        908
    x[66]     c10       899
    x[66]     c11       165
    x[66]     c1        742
    x[66]     OBJ       -167
    x[67]     c2        846
    x[67]     c3        731
    x[67]     c4        949
    x[67]     c5        756
    x[67]     c6        186
    x[67]     c7        817
    x[67]     c8        166
    x[67]     c9        194
    x[67]     c10       301
    x[67]     c11       90
    x[67]     c1        275
    x[67]     OBJ       -645
    x[68]     c2        845
    x[68]     c3        915
    x[68]     c4        170
    x[68]     c5        206
    x[68]     c6        57
    x[68]     c7        187
    x[68]     c8        856
    x[68]     c9        36
    x[68]     c10       257
    x[68]     c11       339
    x[68]     c1        601
    x[68]     OBJ       -66
    x[69]     c2        831
    x[69]     c3        680
    x[69]     c4        501
    x[69]     c5        897
    x[69]     c6        332
    x[69]     c7        669
    x[69]     c8        867
    x[69]     c9        586
    x[69]     c10       799
    x[69]     c11       131
    x[69]     c1        951
    x[69]     OBJ       279
    x[70]     c2        148
    x[70]     c3        936
    x[70]     c4        96
    x[70]     c5        425
    x[70]     c6        913
    x[70]     c7        452
    x[70]     c8        864
    x[70]     c9        640
    x[70]     c10       250
    x[70]     c11       657
    x[70]     c1        731
    x[70]     OBJ       -115
    x[71]     c2        145
    x[71]     c3        866
    x[71]     c4        856
    x[71]     c5        109
    x[71]     c6        919
    x[71]     c7        578
    x[71]     c8        981
    x[71]     c9        838
    x[71]     c10       854
    x[71]     c11       580
    x[71]     c1        166
    x[71]     OBJ       -858
    x[72]     c2        399
    x[72]     c3        347
    x[72]     c4        284
    x[72]     c5        993
    x[72]     c6        232
    x[72]     c7        548
    x[72]     c8        319
    x[72]     c9        734
    x[72]     c10       584
    x[72]     c11       933
    x[72]     c1        659
    x[72]     OBJ       -340
    x[73]     c2        95
    x[73]     c3        895
    x[73]     c4        393
    x[73]     c5        292
    x[73]     c6        574
    x[73]     c7        170
    x[73]     c8        804
    x[73]     c9        260
    x[73]     c10       973
    x[73]     c11       180
    x[73]     c1        15
    x[73]     OBJ       -639
    x[74]     c2        7
    x[74]     c3        20
    x[74]     c4        114
    x[74]     c5        626
    x[74]     c6        608
    x[74]     c7        663
    x[74]     c8        401
    x[74]     c9        496
    x[74]     c10       680
    x[74]     c11       752
    x[74]     c1        230
    x[74]     OBJ       -541
    x[75]     c2        981
    x[75]     c3        645
    x[75]     c4        491
    x[75]     c5        771
    x[75]     c6        848
    x[75]     c7        365
    x[75]     c8        679
    x[75]     c9        988
    x[75]     c10       555
    x[75]     c11       634
    x[75]     c1        577
    x[75]     OBJ       -172
    x[76]     c2        671
    x[76]     c3        643
    x[76]     c4        826
    x[76]     c5        29
    x[76]     c6        143
    x[76]     c7        54
    x[76]     c8        713
    x[76]     c9        552
    x[76]     c10       725
    x[76]     c11       933
    x[76]     c1        807
    x[76]     OBJ       -31
    x[77]     c2        418
    x[77]     c3        750
    x[77]     c4        589
    x[77]     c5        762
    x[77]     c6        887
    x[77]     c7        286
    x[77]     c8        78
    x[77]     c9        149
    x[77]     c10       217
    x[77]     c11       285
    x[77]     c1        420
    x[77]     OBJ       -395
    x[78]     c2        377
    x[78]     c3        273
    x[78]     c4        217
    x[78]     c5        785
    x[78]     c6        866
    x[78]     c7        61
    x[78]     c8        633
    x[78]     c9        64
    x[78]     c10       503
    x[78]     c11       313
    x[78]     c1        862
    x[78]     OBJ       -46
    x[79]     c2        291
    x[79]     c3        294
    x[79]     c4        616
    x[79]     c5        448
    x[79]     c6        234
    x[79]     c7        848
    x[79]     c8        374
    x[79]     c9        624
    x[79]     c10       548
    x[79]     c11       606
    x[79]     c1        974
    x[79]     OBJ       -11
    x[80]     c2        76
    x[80]     c3        715
    x[80]     c4        713
    x[80]     c5        664
    x[80]     c6        764
    x[80]     c7        424
    x[80]     c8        723
    x[80]     c9        255
    x[80]     c10       149
    x[80]     c11       360
    x[80]     c1        991
    x[80]     OBJ       -43
    x[81]     c2        816
    x[81]     c3        661
    x[81]     c4        297
    x[81]     c5        578
    x[81]     c6        657
    x[81]     c7        43
    x[81]     c8        116
    x[81]     c9        775
    x[81]     c10       216
    x[81]     c11       589
    x[81]     c1        795
    x[81]     OBJ       278
    x[82]     c2        472
    x[82]     c3        910
    x[82]     c4        159
    x[82]     c5        361
    x[82]     c6        284
    x[82]     c7        628
    x[82]     c8        537
    x[82]     c9        703
    x[82]     c10       477
    x[82]     c11       72
    x[82]     c1        938
    x[82]     OBJ       355
    x[83]     c2        509
    x[83]     c3        571
    x[83]     c4        578
    x[83]     c5        124
    x[83]     c6        633
    x[83]     c7        235
    x[83]     c8        204
    x[83]     c9        847
    x[83]     c10       719
    x[83]     c11       978
    x[83]     c1        792
    x[83]     OBJ       -160
    x[84]     c2        412
    x[84]     c3        165
    x[84]     c4        264
    x[84]     c5        478
    x[84]     c6        619
    x[84]     c7        323
    x[84]     c8        523
    x[84]     c9        734
    x[84]     c10       179
    x[84]     c11       871
    x[84]     c1        647
    x[84]     OBJ       -74
    x[85]     c2        21
    x[85]     c3        2
    x[85]     c4        410
    x[85]     c5        765
    x[85]     c6        251
    x[85]     c7        322
    x[85]     c8        688
    x[85]     c9        887
    x[85]     c10       980
    x[85]     c11       518
    x[85]     c1        59
    x[85]     OBJ       -432
    x[86]     c2        633
    x[86]     c3        226
    x[86]     c4        740
    x[86]     c5        53
    x[86]     c6        776
    x[86]     c7        307
    x[86]     c8        463
    x[86]     c9        913
    x[86]     c10       436
    x[86]     c11       395
    x[86]     c1        991
    x[86]     OBJ       282
    x[87]     c2        173
    x[87]     c3        7
    x[87]     c4        452
    x[87]     c5        587
    x[87]     c6        443
    x[87]     c7        438
    x[87]     c8        667
    x[87]     c9        269
    x[87]     c10       262
    x[87]     c11       354
    x[87]     c1        759
    x[87]     OBJ       217
    x[88]     c2        472
    x[88]     c3        150
    x[88]     c4        670
    x[88]     c5        250
    x[88]     c6        549
    x[88]     c7        426
    x[88]     c8        424
    x[88]     c9        518
    x[88]     c10       367
    x[88]     c11       957
    x[88]     c1        627
    x[88]     OBJ       -308
    x[89]     c2        622
    x[89]     c3        625
    x[89]     c4        377
    x[89]     c5        872
    x[89]     c6        438
    x[89]     c7        394
    x[89]     c8        843
    x[89]     c9        428
    x[89]     c10       609
    x[89]     c11       29
    x[89]     c1        328
    x[89]     OBJ       -283
    x[90]     c2        265
    x[90]     c3        531
    x[90]     c4        602
    x[90]     c5        383
    x[90]     c6        437
    x[90]     c7        598
    x[90]     c8        948
    x[90]     c9        526
    x[90]     c10       511
    x[90]     c11       767
    x[90]     c1        902
    x[90]     OBJ       -49
    x[91]     c2        229
    x[91]     c3        745
    x[91]     c4        756
    x[91]     c5        751
    x[91]     c6        269
    x[91]     c7        561
    x[91]     c8        367
    x[91]     c9        273
    x[91]     c10       793
    x[91]     c11       73
    x[91]     c1        629
    x[91]     OBJ       -271
    x[92]     c2        890
    x[92]     c3        92
    x[92]     c4        22
    x[92]     c5        579
    x[92]     c6        219
    x[92]     c7        396
    x[92]     c8        226
    x[92]     c9        863
    x[92]     c10       585
    x[92]     c11       479
    x[92]     c1        510
    x[92]     OBJ       -113
    x[93]     c2        229
    x[93]     c3        486
    x[93]     c4        144
    x[93]     c5        753
    x[93]     c6        174
    x[93]     c7        851
    x[93]     c8        219
    x[93]     c9        447
    x[93]     c10       479
    x[93]     c11       914
    x[93]     c1        103
    x[93]     OBJ       -413
    x[94]     c2        126
    x[94]     c3        713
    x[94]     c4        79
    x[94]     c5        473
    x[94]     c6        630
    x[94]     c7        533
    x[94]     c8        950
    x[94]     c9        8
    x[94]     c10       881
    x[94]     c11       624
    x[94]     c1        788
    x[94]     OBJ       -147
    x[95]     c2        947
    x[95]     c3        686
    x[95]     c4        325
    x[95]     c5        604
    x[95]     c6        191
    x[95]     c7        853
    x[95]     c8        52
    x[95]     c9        562
    x[95]     c10       818
    x[95]     c11       578
    x[95]     c1        73
    x[95]     OBJ       -865
    x[96]     c2        167
    x[96]     c3        839
    x[96]     c4        564
    x[96]     c5        215
    x[96]     c6        569
    x[96]     c7        134
    x[96]     c8        85
    x[96]     c9        820
    x[96]     c10       748
    x[96]     c11       169
    x[96]     c1        379
    x[96]     OBJ       -73
    x[97]     c2        4
    x[97]     c3        380
    x[97]     c4        83
    x[97]     c5        307
    x[97]     c6        832
    x[97]     c7        17
    x[97]     c8        399
    x[97]     c9        310
    x[97]     c10       317
    x[97]     c11       126
    x[97]     c1        573
    x[97]     OBJ       -98
    x[98]     c2        187
    x[98]     c3        202
    x[98]     c4        278
    x[98]     c5        173
    x[98]     c6        102
    x[98]     c7        252
    x[98]     c8        998
    x[98]     c9        631
    x[98]     c10       837
    x[98]     c11       563
    x[98]     c1        783
    x[98]     OBJ       -54
    x[99]     c2        952
    x[99]     c3        911
    x[99]     c4        376
    x[99]     c5        871
    x[99]     c6        599
    x[99]     c7        445
    x[99]     c8        742
    x[99]     c9        24
    x[99]     c10       147
    x[99]     c11       309
    x[99]     c1        310
    x[99]     OBJ       -410
    x[100]    c2        356
    x[100]    c3        633
    x[100]    c4        389
    x[100]    c5        840
    x[100]    c6        275
    x[100]    c7        43
    x[100]    c8        21
    x[100]    c9        511
    x[100]    c10       667
    x[100]    c11       276
    x[100]    c1        38
    x[100]    OBJ       -641
RHS
    rhs       c2        34806
    rhs       c3        38798
    rhs       c4        35281
    rhs       c5        39785
    rhs       c6        38870
    rhs       c7        34255
    rhs       c8        37976
    rhs       c9        39761
    rhs       c10       39238
    rhs       c11       39017
    rhs       c1        3851
RANGES
BOUNDS
 LO bounds    ss[1]     0
 PL bounds    ss[1]
 MI bounds    s[1]
 UP bounds    s[1]      0
 MI bounds    s[2]
 UP bounds    s[2]      0
 MI bounds    s[3]
 UP bounds    s[3]      0
 MI bounds    s[4]
 UP bounds    s[4]      0
 MI bounds    s[5]
 UP bounds    s[5]      0
 MI bounds    s[6]
 UP bounds    s[6]      0
 MI bounds    s[7]
 UP bounds    s[7]      0
 MI bounds    s[8]
 UP bounds    s[8]      0
 MI bounds    s[9]
 UP bounds    s[9]      0
 MI bounds    s[10]
 UP bounds    s[10]     0
 BV bounds    x[1]
 BV bounds    x[2]
 BV bounds    x[3]
 BV bounds    x[4]
 BV bounds    x[5]
 BV bounds    x[6]
 BV bounds    x[7]
 BV bounds    x[8]
 BV bounds    x[9]
 BV bounds    x[10]
 BV bounds    x[11]
 BV bounds    x[12]
 BV bounds    x[13]
 BV bounds    x[14]
 BV bounds    x[15]
 BV bounds    x[16]
 BV bounds    x[17]
 BV bounds    x[18]
 BV bounds    x[19]
 BV bounds    x[20]
 BV bounds    x[21]
 BV bounds    x[22]
 BV bounds    x[23]
 BV bounds    x[24]
 BV bounds    x[25]
 BV bounds    x[26]
 BV bounds    x[27]
 BV bounds    x[28]
 BV bounds    x[29]
 BV bounds    x[30]
 BV bounds    x[31]
 BV bounds    x[32]
 BV bounds    x[33]
 BV bounds    x[34]
 BV bounds    x[35]
 BV bounds    x[36]
 BV bounds    x[37]
 BV bounds    x[38]
 BV bounds    x[39]
 BV bounds    x[40]
 BV bounds    x[41]
 BV bounds    x[42]
 BV bounds    x[43]
 BV bounds    x[44]
 BV bounds    x[45]
 BV bounds    x[46]
 BV bounds    x[47]
 BV bounds    x[48]
 BV bounds    x[49]
 BV bounds    x[50]
 BV bounds    x[51]
 BV bounds    x[52]
 BV bounds    x[53]
 BV bounds    x[54]
 BV bounds    x[55]
 BV bounds    x[56]
 BV bounds    x[57]
 BV bounds    x[58]
 BV bounds    x[59]
 BV bounds    x[60]
 BV bounds    x[61]
 BV bounds    x[62]
 BV bounds    x[63]
 BV bounds    x[64]
 BV bounds    x[65]
 BV bounds    x[66]
 BV bounds    x[67]
 BV bounds    x[68]
 BV bounds    x[69]
 BV bounds    x[70]
 BV bounds    x[71]
 BV bounds    x[72]
 BV bounds    x[73]
 BV bounds    x[74]
 BV bounds    x[75]
 BV bounds    x[76]
 BV bounds    x[77]
 BV bounds    x[78]
 BV bounds    x[79]
 BV bounds    x[80]
 BV bounds    x[81]
 BV bounds    x[82]
 BV bounds    x[83]
 BV bounds    x[84]
 BV bounds    x[85]
 BV bounds    x[86]
 BV bounds    x[87]
 BV bounds    x[88]
 BV bounds    x[89]
 BV bounds    x[90]
 BV bounds    x[91]
 BV bounds    x[92]
 BV bounds    x[93]
 BV bounds    x[94]
 BV bounds    x[95]
 BV bounds    x[96]
 BV bounds    x[97]
 BV bounds    x[98]
 BV bounds    x[99]
 BV bounds    x[100]
ENDATA
